
Log started (V12.10.0.0) Thu Apr  8 06:30:03 2021


Problem 'asset.lp' read.
Read time = 0.00 sec. (0.10 ticks)
New value for default parallel thread count: 1
New value for time limit in seconds: 200
Version identifier: 12.10.0.0 | 2019-11-26 | 843d4de
CPXPARAM_Threads                                 1
CPXPARAM_TimeLimit                               200
Found incumbent of value -0.891858 after 0.00 sec. (0.05 ticks)
Tried aggregator 4 times.
MIP Presolve eliminated 635 rows and 456 columns.
MIP Presolve modified 1049 coefficients.
Aggregator did 161 substitutions.
Reduced MIP has 229 rows, 250 columns, and 900 nonzeros.
Reduced MIP has 192 binaries, 36 generals, 0 SOSs, and 0 indicators.
Presolve time = 0.00 sec. (3.62 ticks)
Probing fixed 67 vars, tightened 15 bounds.
Probing time = 0.00 sec. (0.38 ticks)
Cover probing fixed 0 vars, tightened 12 bounds.
Tried aggregator 2 times.
MIP Presolve eliminated 133 rows and 134 columns.
MIP Presolve modified 13 coefficients.
Aggregator did 1 substitutions.
Reduced MIP has 95 rows, 111 columns, and 292 nonzeros.
Reduced MIP has 80 binaries, 15 generals, 0 SOSs, and 0 indicators.
Presolve time = 0.00 sec. (0.82 ticks)
Probing time = 0.00 sec. (0.09 ticks)
Tried aggregator 1 time.
Detecting symmetries...
MIP Presolve modified 2 coefficients.
Reduced MIP has 95 rows, 111 columns, and 292 nonzeros.
Reduced MIP has 80 binaries, 15 generals, 0 SOSs, and 0 indicators.
Presolve time = 0.00 sec. (0.21 ticks)
Probing time = 0.00 sec. (0.08 ticks)
Clique table members: 91.
MIP emphasis: balance optimality and feasibility.
MIP search method: dynamic search.
Parallel mode: none, using 1 thread.
Root relaxation solution time = 0.00 sec. (0.29 ticks)

        Nodes                                         Cuts/
   Node  Left     Objective  IInf  Best Integer    Best Bound    ItCnt     Gap

*     0+    0                           -0.8919      218.1228              --- 
      0     0       74.0914    11       -0.8919       74.0914       39     --- 
*     0+    0                           74.0881       74.0914             0.00%

Root node processing (before b&c):
  Real time             =    0.01 sec. (6.24 ticks)
Sequential b&c:
  Real time             =    0.00 sec. (0.00 ticks)
                          ------------
Total (root+branch&cut) =    0.01 sec. (6.24 ticks)

Solution pool: 2 solutions saved.

MIP - Integer optimal, tolerance (0.0001/1e-06):  Objective =  7.4088087773e+01
Current MIP best bound =  7.4091361329e+01 (gap = 0.00327356, 0.00%)
Solution time =    0.01 sec.  Iterations = 39  Nodes = 0 (1)
Deterministic time = 6.24 ticks  (623.77 ticks/sec)


Incumbent solution
Variable Name           Solution Value
F                            90.000000
f1                            0.911912
f2                           15.000000
y112                          1.000000
y127                          1.000000
y24                           1.000000
y149                          1.000000
y114                          1.000000
y150                          1.000000
y35                           1.000000
s14                           6.000000
s50                           6.000000
s56                           6.000000
s57                           6.000000
s58                           6.000000
s61                           6.000000
s77                           6.000000
s85                           6.000000
s86                           6.000000
s107                          6.000000
s118                          6.000000
s121                          6.000000
s144                          6.000000
s94                           6.050000
s154                          6.080000
s112                          6.849739
s127                          6.958323
s24                           7.335356
s149                          6.736482
s181                          6.470000
s128                          6.580000
s92                           6.620000
s114                          7.380165
s176                          6.740000
s147                          6.770000
s150                          7.788550
s151                          6.800000
s103                          6.850000
s130                          6.870000
s12                           6.880000
s95                           6.880000
s168                          6.890000
s175                          7.000000
s153                          7.010000
s180                          7.010000
s35                           7.967685
s20                           7.050000
x158x112x1                    1.000000
x160x114x1                    1.000000
x52x127x2                     1.000000
x52x149x2                     1.000000
x76x112x2                     1.000000
x76x149x2                     1.000000
x158x127x3                    1.000000
x160x24x3                     1.000000
x38x24x3                      1.000000
x38x114x3                     1.000000
x112x35x1                     1.000000
x112x35x2                     1.000000
x127x0x2                      1.000000
x127x0x3                      1.000000
x24x0x3                       2.000000
x149x150x2                    2.000000
x114x0x1                      1.000000
x114x0x3                      1.000000
x150x0x2                      2.000000
x35x0x1                       1.000000
x35x0x2                       1.000000
s158                          5.193373
z158z112z1                    1.000000
z158z127z3                    1.000000
z158z180z1                    1.000000
z158z20z1                     1.000000
s52                           5.091078
z52z127z2                     1.000000
z52z149z2                     1.000000
z52z150z2                     1.000000
s76                           5.196774
z76z112z2                     1.000000
z76z149z2                     1.000000
z76z150z2                     1.000000
s160                          5.567527
z160z24z3                     1.000000
z160z114z1                    1.000000
s38                           5.840000
z38z24z3                      1.000000
z38z114z3                     1.000000
z112z35z1                     1.000000
z112z35z2                     1.000000
z149z150z2                    1.000000
All other variables in the range 1-875 are 0.
